Academic license - for non-commercial use only
Optimize a model with 6 rows, 9 columns and 18 nonzeros
Model has 18 quadratic objective terms
Variable types: 0 continuous, 9 integer (0 binary)
Coefficient statistics:
  Matrix range     [1e+00, 1e+00]
  Objective range  [0e+00, 0e+00]
  QObjective range [8e+00, 4e+01]
  Bounds range     [1e+00, 1e+00]
  RHS range        [1e+00, 1e+00]
Presolve time: 0.00s
Presolved: 24 rows, 27 columns, 72 nonzeros
Variable types: 0 continuous, 27 integer (27 binary)
Found heuristic solution: objective 24.0000000

Root relaxation: objective 0.000000e+00, 7 iterations, 0.00 seconds

    Nodes    |    Current Node    |     Objective Bounds      |     Work
 Expl Unexpl |  Obj  Depth IntInf | Incumbent    BestBd   Gap | It/Node Time

     0     0    0.00000    0    6   24.00000    0.00000   100%     -    0s
     0     0    0.00000    0    6   24.00000    0.00000   100%     -    0s
     0     0    0.00000    0    6   24.00000    0.00000   100%     -    0s
     0     2    0.00000    0    6   24.00000    0.00000   100%     -    0s

Cutting planes:
  Gomory: 1
  MIR: 4
  Zero half: 4

Explored 5 nodes (25 simplex iterations) in 0.01 seconds
Thread count was 12 (of 12 available processors)

Solution count 1: 24 

Optimal solution found (tolerance 1.00e-04)
Best objective 2.400000000000e+01, best bound 2.400000000000e+01, gap 0.0000%
  1.385571 seconds (1.03 M allocations: 50.630 MiB, 0.94% gc time)

 Solution : Optimal

Objective : 24.0
Academic license - for non-commercial use only
Optimize a model with 6 rows, 9 columns and 18 nonzeros
Model has 18 quadratic objective terms
Variable types: 0 continuous, 9 integer (0 binary)
Coefficient statistics:
  Matrix range     [1e+00, 1e+00]
  Objective range  [0e+00, 0e+00]
  QObjective range [8e+00, 4e+01]
  Bounds range     [1e+00, 1e+00]
  RHS range        [1e+00, 1e+00]
Presolve time: 0.00s
Presolved: 24 rows, 27 columns, 72 nonzeros
Variable types: 0 continuous, 27 integer (27 binary)
Found heuristic solution: objective 24.0000000

Root relaxation: objective 0.000000e+00, 7 iterations, 0.00 seconds

    Nodes    |    Current Node    |     Objective Bounds      |     Work
 Expl Unexpl |  Obj  Depth IntInf | Incumbent    BestBd   Gap | It/Node Time

     0     0    0.00000    0    6   24.00000    0.00000   100%     -    0s
     0     0    0.00000    0    6   24.00000    0.00000   100%     -    0s
     0     0    0.00000    0    6   24.00000    0.00000   100%     -    0s
     0     2    0.00000    0    6   24.00000    0.00000   100%     -    0s

Cutting planes:
  Gomory: 1
  MIR: 4
  Zero half: 4

Explored 5 nodes (25 simplex iterations) in 0.00 seconds
Thread count was 12 (of 12 available processors)

Solution count 1: 24 

Optimal solution found (tolerance 1.00e-04)
Best objective 2.400000000000e+01, best bound 2.400000000000e+01, gap 0.0000%
  1.309031 seconds (1.03 M allocations: 50.630 MiB, 0.87% gc time)

 Solution : Optimal


Objective : 24.0
Academic license - for non-commercial use only
Optimize a model with 6 rows, 9 columns and 18 nonzeros
Model has 18 quadratic objective terms
Variable types: 0 continuous, 9 integer (0 binary)
Coefficient statistics:
  Matrix range     [1e+00, 1e+00]
  Objective range  [0e+00, 0e+00]
  QObjective range [8e+00, 4e+01]
  Bounds range     [1e+00, 1e+00]
  RHS range        [1e+00, 1e+00]
Presolve time: 0.00s
Presolved: 24 rows, 27 columns, 72 nonzeros
Variable types: 0 continuous, 27 integer (27 binary)
Found heuristic solution: objective 24.0000000

Root relaxation: objective 0.000000e+00, 7 iterations, 0.00 seconds

    Nodes    |    Current Node    |     Objective Bounds      |     Work
 Expl Unexpl |  Obj  Depth IntInf | Incumbent    BestBd   Gap | It/Node Time

     0     0    0.00000    0    6   24.00000    0.00000   100%     -    0s
     0     0    0.00000    0    6   24.00000    0.00000   100%     -    0s
     0     0    0.00000    0    6   24.00000    0.00000   100%     -    0s
     0     2    0.00000    0    6   24.00000    0.00000   100%     -    0s

Cutting planes:
  Gomory: 1
  MIR: 4
  Zero half: 4

Explored 5 nodes (25 simplex iterations) in 0.00 seconds
Thread count was 12 (of 12 available processors)

Solution count 1: 24 

Optimal solution found (tolerance 1.00e-04)
Best objective 2.400000000000e+01, best bound 2.400000000000e+01, gap 0.0000%
  1.333086 seconds (1.03 M allocations: 50.630 MiB, 0.89% gc time)


 Solution : Optimal


Objective : 24.0
